<number of tasks>
89

<cycle time>
92

<task times>
1 28
2 17
3 7
4 10
5 12
6 16
7 13
8 8
9 13
10 24
11 16
12 24
13 12
14 20
15 22
16 22
17 22
18 47
19 6
20 12
21 6
22 22
23 7
24 14
25 68
26 15
27 8
28 74
29 32
30 11
31 18
32 15
33 42
34 27
35 38
36 38
37 26
38 35
39 31
40 8
41 14
42 8
43 8
44 8
45 17
46 7
47 19
48 12
49 24
50 26
51 22
52 14
53 27
54 60
55 4
56 2
57 1
58 9
59 5
60 6
61 7
62 12
63 2
64 11
65 14
66 6
67 21
68 14
69 1
70 6
71 21
72 11
73 14
74 28
75 12
76 11
77 30
78 22
79 14
80 31
81 18
82 16
83 7
84 38
85 8
86 31
87 29
88 12
89 18

<precedence relations>
1,2
2,3
3,4
4,5
4,6
4,7
4,8
4,9
5,10
6,11
7,12
8,18
9,18
10,14
11,12
12,13
13,14
14,15
14,16
15,17
16,54
17,18
18,19
18,20
19,22
20,21
20,28
21,54
22,23
23,24
24,25
25,26
25,27
25,29
26,37
27,33
28,29
29,31
30,54
31,32
32,33
33,34
34,35
35,36
35,37
36,38
37,38
38,39
39,40
39,41
39,42
39,43
40,44
41,53
42,53
43,45
44,52
45,46
46,47
47,48
47,49
49,50
50,51
51,52
52,53
53,68
53,69
53,70
53,71
54,55
55,56
56,57
57,58
57,59
57,60
57,61
57,62
57,63
57,64
57,65
57,66
58,67
59,67
60,67
61,67
62,67
63,67
64,67
65,67
66,67
67,73
68,72
69,72
70,72
71,73
72,78
72,80
73,74
74,75
74,76
75,77
76,81
77,78
78,79
79,81
80,81
81,82
81,84
81,85
82,83
83,86
84,86
85,86
86,87
87,88
87,89

<setup times forward>
4,5:5
4,8:2
4,9:2
5,6:5
5,7:5
5,8:7
5,9:7
5,30:5
6,5:5
6,8:2
6,9:2
6,10:5
6,11:5
7,5:5
7,8:2
7,9:2
7,10:5
7,11:5
7,12:5
8,5:7
8,6:2
8,7:2
8,10:7
8,11:7
8,12:7
8,13:7
8,16:2
8,18:4
8,30:2
9,5:7
9,6:2
9,7:2
9,10:7
9,11:7
9,12:7
9,13:7
9,16:2
9,18:4
9,30:2
10,6:5
10,7:5
10,8:7
10,9:7
10,14:7
10,30:5
11,7:5
11,8:7
11,9:7
11,30:5
12,8:7
12,9:7
12,30:5
13,8:7
13,9:7
13,14:7
13,30:5
14,16:2
14,30:2
15,16:2
15,30:2
16,8:2
16,9:2
16,15:2
16,17:2
16,18:6
16,19:6
16,20:6
16,21:1
16,22:6
16,23:5
16,24:5
16,25:5
16,26:4
16,27:1
16,28:1
16,29:4
16,30:4
16,31:4
16,32:4
16,35:7
16,36:7
16,37:2
16,38:2
16,39:2
16,40:3
16,41:6
16,42:8
16,43:2
16,44:3
16,45:2
16,46:2
16,47:3
16,48:6
16,49:3
16,50:3
16,51:6
16,52:6
16,53:3
16,54:2
16,68:3
16,69:2
16,70:2
16,71:3
16,72:2
16,80:2
17,16:2
17,18:4
17,30:2
18,16:6
18,30:2
19,16:6
19,21:5
19,28:5
19,30:2
19,54:8
19,55:3
19,56:3
19,57:3
19,58:9
19,59:2
19,60:2
19,61:2
19,64:2
19,66:2
19,67:9
20,16:6
20,21:5
20,23:1
20,24:1
20,25:1
20,26:2
20,27:5
20,28:5
20,30:2
21,16:1
21,19:5
21,22:5
21,23:4
21,24:4
21,25:4
21,26:3
21,29:3
21,30:3
21,31:3
21,32:3
21,33:1
21,34:1
21,35:6
21,36:6
21,37:1
21,38:1
21,39:1
21,40:2
21,41:5
21,42:7
21,43:3
21,44:2
21,45:3
21,46:3
21,47:2
21,48:5
21,49:2
21,50:2
21,51:5
21,52:5
21,53:4
21,54:3
21,68:4
21,69:3
21,70:3
21,71:4
21,72:3
21,80:3
22,16:6
22,21:5
22,23:1
22,28:5
22,30:2
22,54:8
22,55:3
22,56:3
22,57:3
22,58:9
22,59:2
22,60:2
22,61:2
22,64:2
22,66:2
22,67:9
23,16:5
23,20:1
23,21:4
23,28:4
23,30:1
23,54:7
23,55:2
23,56:2
23,57:2
23,58:8
23,59:3
23,60:3
23,61:3
23,62:1
23,63:1
23,64:3
23,65:1
23,66:3
23,67:8
24,16:5
24,20:1
24,21:4
24,28:4
24,30:1
24,54:7
24,55:2
24,56:2
24,57:2
24,58:8
24,59:3
24,60:3
24,61:3
24,62:1
24,63:1
24,64:3
24,65:1
24,66:3
24,67:8
25,16:5
25,20:1
25,21:4
25,26:1
25,27:4
25,28:4
25,29:1
25,30:1
25,54:7
25,55:2
25,56:2
25,57:2
25,58:8
25,59:3
25,60:3
25,61:3
25,62:1
25,63:1
25,64:3
25,65:1
25,66:3
25,67:8
26,16:4
26,20:2
26,21:3
26,27:3
26,28:3
26,33:4
26,34:4
26,35:3
26,36:3
26,37:2
26,54:6
26,55:1
26,56:1
26,57:1
26,58:7
26,59:4
26,60:4
26,61:4
26,62:2
26,63:2
26,64:4
26,65:2
26,66:4
26,67:7
27,16:1
27,20:5
27,26:3
27,29:3
27,30:3
27,31:3
27,32:3
27,33:1
27,54:3
27,55:2
27,56:2
27,57:2
27,58:4
27,59:7
27,60:7
27,61:7
27,62:5
27,63:5
27,64:7
27,65:5
27,66:7
27,67:4
28,16:1
28,19:5
28,22:5
28,23:4
28,24:4
28,25:4
28,26:3
28,29:3
28,30:3
28,54:3
28,55:2
28,56:2
28,57:2
28,58:4
28,59:7
28,60:7
28,61:7
28,62:5
28,63:5
28,64:7
28,65:5
28,66:7
28,67:4
29,16:4
29,21:3
29,27:3
29,54:6
29,55:1
29,56:1
29,57:1
29,58:7
29,59:4
29,60:4
29,61:4
29,62:2
29,63:2
29,64:4
29,65:2
29,66:4
29,67:7
30,5:5
30,8:2
30,9:2
30,10:5
30,11:5
30,12:5
30,13:5
30,14:2
30,15:2
30,16:4
30,17:2
30,18:2
30,19:2
30,20:2
30,21:3
30,22:2
30,23:1
30,24:1
30,25:1
30,27:3
30,28:3
30,33:4
30,34:4
30,35:3
30,36:3
30,37:2
30,38:2
30,39:2
30,40:1
30,41:2
30,42:4
30,43:6
30,44:1
30,45:6
30,46:6
30,47:1
30,48:2
30,49:1
30,50:1
30,51:2
30,52:2
30,53:7
30,54:6
30,68:7
30,69:6
30,70:6
30,71:7
30,72:6
30,80:6
31,16:4
31,21:3
31,27:3
31,54:6
31,55:1
31,56:1
31,57:1
31,58:7
31,59:4
31,60:4
31,61:4
31,62:2
31,63:2
31,64:4
31,65:2
31,66:4
31,67:7
32,16:4
32,21:3
32,27:3
32,33:4
32,54:6
32,55:1
32,56:1
32,57:1
32,58:7
32,59:4
32,60:4
32,61:4
32,62:2
32,63:2
32,64:4
32,65:2
32,66:4
32,67:7
33,21:1
33,26:4
33,30:4
33,54:2
33,55:3
33,56:3
33,57:3
33,58:3
33,59:8
33,60:8
33,61:8
33,62:6
33,63:6
33,64:8
33,65:6
33,66:8
33,67:3
34,21:1
34,26:4
34,30:4
34,35:7
34,54:2
34,55:3
34,56:3
34,57:3
34,58:3
34,59:8
34,60:8
34,61:8
34,62:6
34,63:6
34,64:8
34,65:6
34,66:8
34,67:3
35,16:7
35,21:6
35,26:3
35,30:3
35,37:5
35,54:9
35,55:4
35,56:4
35,57:4
35,58:10
35,59:1
35,60:1
35,61:1
35,62:1
35,63:1
35,64:1
35,65:1
35,66:1
35,67:10
36,16:7
36,21:6
36,26:3
36,30:3
36,37:5
36,38:5
36,54:9
36,55:4
36,56:4
36,57:4
36,58:10
36,59:1
36,60:1
36,61:1
36,62:1
36,63:1
36,64:1
36,65:1
36,66:1
36,67:10
37,16:2
37,21:1
37,30:2
37,36:5
37,54:4
37,55:1
37,56:1
37,57:1
37,58:5
37,59:6
37,60:6
37,61:6
37,62:4
37,63:4
37,64:6
37,65:4
37,66:6
37,67:5
38,16:2
38,21:1
38,30:2
38,54:4
38,55:1
38,56:1
38,57:1
38,58:5
38,59:6
38,60:6
38,61:6
38,62:4
38,63:4
38,64:6
38,65:4
38,66:6
38,67:5
39,16:2
39,21:1
39,30:2
39,40:1
39,41:4
39,42:6
39,43:4
39,54:4
39,55:1
39,56:1
39,57:1
39,58:5
39,59:6
39,60:6
39,61:6
39,62:4
39,63:4
39,64:6
39,65:4
39,66:6
39,67:5
40,16:3
40,21:2
40,30:1
40,41:3
40,42:5
40,43:5
40,45:5
40,46:5
40,48:3
40,51:3
40,54:5
40,58:6
40,59:5
40,60:5
40,61:5
40,62:3
40,63:3
40,64:5
40,65:3
40,66:5
40,67:6
41,16:6
41,21:5
41,30:2
41,40:3
41,42:2
41,43:8
41,44:3
41,45:8
41,46:8
41,47:3
41,49:3
41,50:3
41,53:9
41,54:8
41,55:3
41,56:3
41,57:3
41,58:9
41,59:2
41,60:2
41,61:2
41,64:2
41,66:2
41,67:9
42,16:8
42,21:7
42,30:4
42,40:5
42,41:2
42,43:10
42,44:5
42,45:10
42,46:10
42,47:5
42,48:2
42,49:5
42,50:5
42,51:2
42,52:2
42,53:11
42,54:10
42,55:5
42,56:5
42,57:5
42,58:11
42,62:2
42,63:2
42,65:2
42,67:11
43,16:2
43,21:3
43,30:6
43,40:5
43,41:8
43,42:10
43,44:5
43,55:5
43,56:5
43,57:5
43,58:1
43,59:10
43,60:10
43,61:10
43,62:8
43,63:8
43,64:10
43,65:8
43,66:10
43,67:1
44,16:3
44,21:2
44,30:1
44,41:3
44,42:5
44,43:5
44,45:5
44,46:5
44,48:3
44,51:3
44,52:3
44,54:5
44,58:6
44,59:5
44,60:5
44,61:5
44,62:3
44,63:3
44,64:5
44,65:3
44,66:5
44,67:6
45,16:2
45,21:3
45,30:6
45,40:5
45,41:8
45,42:10
45,44:5
45,55:5
45,56:5
45,57:5
45,58:1
45,59:10
45,60:10
45,61:10
45,62:8
45,63:8
45,64:10
45,65:8
45,66:10
45,67:1
46,16:2
46,21:3
46,30:6
46,40:5
46,41:8
46,42:10
46,44:5
46,47:5
46,55:5
46,56:5
46,57:5
46,58:1
46,59:10
46,60:10
46,61:10
46,62:8
46,63:8
46,64:10
46,65:8
46,66:10
46,67:1
47,16:3
47,21:2
47,30:1
47,41:3
47,42:5
47,48:3
47,54:5
47,58:6
47,59:5
47,60:5
47,61:5
47,62:3
47,63:3
47,64:5
47,65:3
47,66:5
47,67:6
48,16:6
48,21:5
48,30:2
48,40:3
48,42:2
48,44:3
48,49:3
48,50:3
48,53:9
48,54:8
48,55:3
48,56:3
48,57:3
48,58:9
48,59:2
48,60:2
48,61:2
48,64:2
48,66:2
48,67:9
48,68:9
48,69:8
48,70:8
48,71:9
48,72:8
48,73:8
48,74:8
48,75:3
48,76:3
48,77:3
48,78:3
48,79:3
48,80:8
48,81:3
48,82:3
48,83:3
48,84:3
48,85:3
48,86:1
48,87:1
48,88:1
48,89:1
49,16:3
49,21:2
49,30:1
49,41:3
49,42:5
49,48:3
49,54:5
49,58:6
49,59:5
49,60:5
49,61:5
49,62:3
49,63:3
49,64:5
49,65:3
49,66:5
49,67:6
50,16:3
50,21:2
50,30:1
50,41:3
50,42:5
50,48:3
50,51:3
50,54:5
50,58:6
50,59:5
50,60:5
50,61:5
50,62:3
50,63:3
50,64:5
50,65:3
50,66:5
50,67:6
51,16:6
51,21:5
51,30:2
51,40:3
51,42:2
51,44:3
51,54:8
51,55:3
51,56:3
51,57:3
51,58:9
51,59:2
51,60:2
51,61:2
51,64:2
51,66:2
51,67:9
52,16:6
52,21:5
52,30:2
52,42:2
52,53:9
52,54:8
52,55:3
52,56:3
52,57:3
52,58:9
52,59:2
52,60:2
52,61:2
52,64:2
52,66:2
52,67:9
53,16:3
53,21:4
53,30:7
53,48:9
53,54:1
53,55:6
53,56:6
53,57:6
53,59:11
53,60:11
53,61:11
53,62:9
53,63:9
53,64:11
53,65:9
53,66:11
53,69:1
53,70:1
54,19:8
54,22:8
54,23:7
54,24:7
54,25:7
54,26:6
54,27:3
54,28:3
54,29:6
54,31:6
54,32:6
54,33:2
54,34:2
54,35:9
54,36:9
54,37:4
54,38:4
54,39:4
54,40:5
54,41:8
54,42:10
54,44:5
54,47:5
54,48:8
54,49:5
54,50:5
54,51:8
54,52:8
54,53:1
54,55:5
54,68:1
54,71:1
55,19:3
55,22:3
55,23:2
55,24:2
55,25:2
55,26:1
55,27:2
55,28:2
55,29:1
55,31:1
55,32:1
55,33:3
55,34:3
55,35:4
55,36:4
55,37:1
55,38:1
55,39:1
55,41:3
55,42:5
55,43:5
55,45:5
55,46:5
55,48:3
55,51:3
55,52:3
55,53:6
55,68:6
55,69:5
55,70:5
55,71:6
55,72:5
55,80:5
56,19:3
56,22:3
56,23:2
56,24:2
56,25:2
56,26:1
56,27:2
56,28:2
56,29:1
56,31:1
56,32:1
56,33:3
56,34:3
56,35:4
56,36:4
56,37:1
56,38:1
56,39:1
56,41:3
56,42:5
56,43:5
56,45:5
56,46:5
56,48:3
56,51:3
56,52:3
56,53:6
56,68:6
56,69:5
56,70:5
56,71:6
56,72:5
56,80:5
57,19:3
57,22:3
57,23:2
57,24:2
57,25:2
57,26:1
57,27:2
57,28:2
57,29:1
57,31:1
57,32:1
57,33:3
57,34:3
57,35:4
57,36:4
57,37:1
57,38:1
57,39:1
57,41:3
57,42:5
57,43:5
57,45:5
57,46:5
57,48:3
57,51:3
57,52:3
57,53:6
57,58:6
57,59:5
57,60:5
57,61:5
57,62:3
57,63:3
57,64:5
57,65:3
57,66:5
57,68:6
57,69:5
57,70:5
57,71:6
57,72:5
57,80:5
58,19:9
58,22:9
58,23:8
58,24:8
58,25:8
58,26:7
58,27:4
58,28:4
58,29:7
58,31:7
58,32:7
58,33:3
58,34:3
58,35:10
58,36:10
58,37:5
58,38:5
58,39:5
58,40:6
58,41:9
58,42:11
58,43:1
58,44:6
58,45:1
58,46:1
58,47:6
58,48:9
58,49:6
58,50:6
58,51:9
58,52:9
58,59:11
58,60:11
58,61:11
58,62:9
58,63:9
58,64:11
58,65:9
58,66:11
58,69:1
58,70:1
58,72:1
58,80:1
59,19:2
59,22:2
59,23:3
59,24:3
59,25:3
59,26:4
59,27:7
59,28:7
59,29:4
59,31:4
59,32:4
59,33:8
59,34:8
59,35:1
59,36:1
59,37:6
59,38:6
59,39:6
59,40:5
59,41:2
59,43:10
59,44:5
59,45:10
59,46:10
59,47:5
59,48:2
59,49:5
59,50:5
59,51:2
59,52:2
59,53:11
59,58:11
59,62:2
59,63:2
59,65:2
59,67:11
59,68:11
59,69:10
59,70:10
59,71:11
59,72:10
59,80:10
60,19:2
60,22:2
60,23:3
60,24:3
60,25:3
60,26:4
60,27:7
60,28:7
60,29:4
60,31:4
60,32:4
60,33:8
60,34:8
60,35:1
60,36:1
60,37:6
60,38:6
60,39:6
60,40:5
60,41:2
60,43:10
60,44:5
60,45:10
60,46:10
60,47:5
60,48:2
60,49:5
60,50:5
60,51:2
60,52:2
60,53:11
60,58:11
60,62:2
60,63:2
60,65:2
60,67:11
60,68:11
60,69:10
60,70:10
60,71:11
60,72:10
60,80:10
61,19:2
61,22:2
61,23:3
61,24:3
61,25:3
61,26:4
61,27:7
61,28:7
61,29:4
61,31:4
61,32:4
61,33:8
61,34:8
61,35:1
61,36:1
61,37:6
61,38:6
61,39:6
61,40:5
61,41:2
61,43:10
61,44:5
61,45:10
61,46:10
61,47:5
61,48:2
61,49:5
61,50:5
61,51:2
61,52:2
61,53:11
61,58:11
61,62:2
61,63:2
61,65:2
61,67:11
61,68:11
61,69:10
61,70:10
61,71:11
61,72:10
61,80:10
62,23:1
62,24:1
62,25:1
62,26:2
62,27:5
62,28:5
62,29:2
62,31:2
62,32:2
62,33:6
62,34:6
62,35:1
62,36:1
62,37:4
62,38:4
62,39:4
62,40:3
62,42:2
62,43:8
62,44:3
62,45:8
62,46:8
62,47:3
62,49:3
62,50:3
62,53:9
62,58:9
62,59:2
62,60:2
62,61:2
62,64:2
62,66:2
62,67:9
62,68:9
62,69:8
62,70:8
62,71:9
62,72:8
62,80:8
63,23:1
63,24:1
63,25:1
63,26:2
63,27:5
63,28:5
63,29:2
63,31:2
63,32:2
63,33:6
63,34:6
63,35:1
63,36:1
63,37:4
63,38:4
63,39:4
63,40:3
63,42:2
63,43:8
63,44:3
63,45:8
63,46:8
63,47:3
63,49:3
63,50:3
63,53:9
63,58:9
63,59:2
63,60:2
63,61:2
63,64:2
63,66:2
63,67:9
63,68:9
63,69:8
63,70:8
63,71:9
63,72:8
63,80:8
64,19:2
64,22:2
64,23:3
64,24:3
64,25:3
64,26:4
64,27:7
64,28:7
64,29:4
64,31:4
64,32:4
64,33:8
64,34:8
64,35:1
64,36:1
64,37:6
64,38:6
64,39:6
64,40:5
64,41:2
64,43:10
64,44:5
64,45:10
64,46:10
64,47:5
64,48:2
64,49:5
64,50:5
64,51:2
64,52:2
64,53:11
64,58:11
64,62:2
64,63:2
64,65:2
64,67:11
64,68:11
64,69:10
64,70:10
64,71:11
64,72:10
64,80:10
65,23:1
65,24:1
65,25:1
65,26:2
65,27:5
65,28:5
65,29:2
65,31:2
65,32:2
65,33:6
65,34:6
65,35:1
65,36:1
65,37:4
65,38:4
65,39:4
65,40:3
65,42:2
65,43:8
65,44:3
65,45:8
65,46:8
65,47:3
65,49:3
65,50:3
65,53:9
65,58:9
65,59:2
65,60:2
65,61:2
65,64:2
65,66:2
65,67:9
65,68:9
65,69:8
65,70:8
65,71:9
65,72:8
65,80:8
66,19:2
66,22:2
66,23:3
66,24:3
66,25:3
66,26:4
66,27:7
66,28:7
66,29:4
66,31:4
66,32:4
66,33:8
66,34:8
66,35:1
66,36:1
66,37:6
66,38:6
66,39:6
66,40:5
66,41:2
66,43:10
66,44:5
66,45:10
66,46:10
66,47:5
66,48:2
66,49:5
66,50:5
66,51:2
66,52:2
66,53:11
66,58:11
66,62:2
66,63:2
66,65:2
66,67:11
66,68:11
66,69:10
66,70:10
66,71:11
66,72:10
66,80:10
67,19:9
67,22:9
67,23:8
67,24:8
67,25:8
67,26:7
67,27:4
67,28:4
67,29:7
67,31:7
67,32:7
67,33:3
67,34:3
67,35:10
67,36:10
67,37:5
67,38:5
67,39:5
67,40:6
67,41:9
67,42:11
67,43:1
67,44:6
67,45:1
67,46:1
67,47:6
67,48:9
67,49:6
67,50:6
67,51:9
67,52:9
67,69:1
67,70:1
67,72:1
67,73:1
67,80:1
68,16:3
68,21:4
68,30:7
68,48:9
68,54:1
68,55:6
68,56:6
68,57:6
68,59:11
68,60:11
68,61:11
68,62:9
68,63:9
68,64:11
68,65:9
68,66:11
68,69:1
68,70:1
68,72:1
68,73:1
68,74:1
68,75:12
68,76:12
68,77:12
69,16:2
69,21:3
69,30:6
69,48:8
69,55:5
69,56:5
69,57:5
69,58:1
69,59:10
69,60:10
69,61:10
69,62:8
69,63:8
69,64:10
69,65:8
69,66:10
69,67:1
69,68:1
69,71:1
69,75:11
69,76:11
69,77:11
70,16:2
70,21:3
70,30:6
70,48:8
70,55:5
70,56:5
70,57:5
70,58:1
70,59:10
70,60:10
70,61:10
70,62:8
70,63:8
70,64:10
70,65:8
70,66:10
70,67:1
70,68:1
70,71:1
70,75:11
70,76:11
70,77:11
71,16:3
71,21:4
71,30:7
71,48:9
71,54:1
71,55:6
71,56:6
71,57:6
71,59:11
71,60:11
71,61:11
71,62:9
71,63:9
71,64:11
71,65:9
71,66:11
71,69:1
71,70:1
71,72:1
71,73:1
71,80:1
72,16:2
72,21:3
72,30:6
72,48:8
72,55:5
72,56:5
72,57:5
72,58:1
72,59:10
72,60:10
72,61:10
72,62:8
72,63:8
72,64:10
72,65:8
72,66:10
72,67:1
72,71:1
72,75:11
72,76:11
72,77:11
72,78:11
73,48:8
73,68:1
74,48:8
74,68:1
74,75:11
74,76:11
75,48:3
75,68:12
75,69:11
75,70:11
75,72:11
75,80:11
76,48:3
76,68:12
76,69:11
76,70:11
76,72:11
76,80:11
76,81:6
77,48:3
77,68:12
77,69:11
77,70:11
77,72:11
77,80:11
78,48:3
78,80:11
79,48:3
79,80:11
79,81:6
80,16:2
80,21:3
80,30:6
80,48:8
80,55:5
80,56:5
80,57:5
80,58:1
80,59:10
80,60:10
80,61:10
80,62:8
80,63:8
80,64:10
80,65:8
80,66:10
80,67:1
80,71:1
80,75:11
80,76:11
80,77:11
80,78:11
80,79:11
80,81:5
81,48:3
82,48:3
83,48:3
83,86:2
84,48:3
84,86:2
85,48:3
85,86:2
86,48:1
87,48:1
88,48:1
89,48:1

<setup times backward>
5,1:5
5,2:5
5,3:5
5,4:5
5,6:5
5,7:5
5,8:7
5,9:7
5,30:5
6,8:2
6,9:2
7,8:2
7,9:2
8,16:2
9,16:2
10,1:5
10,2:5
10,3:5
10,4:5
10,6:5
10,7:5
10,8:7
10,9:7
10,30:5
11,1:5
11,2:5
11,3:5
11,4:5
11,6:5
11,7:5
11,8:7
11,9:7
11,30:5
12,1:5
12,2:5
12,3:5
12,4:5
12,6:5
12,7:5
12,8:7
12,9:7
12,30:5
13,1:5
13,2:5
13,3:5
13,4:5
13,6:5
13,7:5
13,8:7
13,9:7
13,30:5
15,16:2
16,43:2
16,45:2
16,46:2
16,53:3
16,68:3
16,69:2
16,70:2
16,71:3
16,72:2
16,80:2
17,16:2
18,1:2
18,2:2
18,3:2
18,4:2
18,6:2
18,7:2
18,8:4
18,9:4
18,14:4
18,15:4
18,16:6
18,17:4
18,30:2
19,1:2
19,2:2
19,3:2
19,4:2
19,6:2
19,7:2
19,8:4
19,9:4
19,14:4
19,15:4
19,16:6
19,17:4
19,21:5
19,28:5
19,30:2
19,54:8
19,55:3
19,56:3
19,57:3
19,58:9
19,67:9
20,1:2
20,2:2
20,3:2
20,4:2
20,6:2
20,7:2
20,8:4
20,9:4
20,14:4
20,15:4
20,16:6
20,17:4
20,23:1
20,24:1
20,25:1
20,26:2
20,27:5
20,30:2
21,16:1
21,33:1
21,34:1
21,43:3
21,45:3
21,46:3
21,53:4
21,68:4
21,69:3
21,70:3
21,71:4
21,72:3
21,80:3
22,1:2
22,2:2
22,3:2
22,4:2
22,6:2
22,7:2
22,8:4
22,9:4
22,14:4
22,15:4
22,16:6
22,17:4
22,21:5
22,28:5
22,30:2
22,54:8
22,55:3
22,56:3
22,57:3
22,58:9
22,67:9
23,1:1
23,2:1
23,3:1
23,4:1
23,6:1
23,7:1
23,8:3
23,9:3
23,14:3
23,15:3
23,16:5
23,17:3
23,21:4
23,28:4
23,30:1
23,54:7
23,55:2
23,56:2
23,57:2
23,58:8
23,67:8
24,1:1
24,2:1
24,3:1
24,4:1
24,6:1
24,7:1
24,8:3
24,9:3
24,14:3
24,15:3
24,16:5
24,17:3
24,21:4
24,28:4
24,30:1
24,54:7
24,55:2
24,56:2
24,57:2
24,58:8
24,67:8
25,1:1
25,2:1
25,3:1
25,4:1
25,6:1
25,7:1
25,8:3
25,9:3
25,14:3
25,15:3
25,16:5
25,17:3
25,21:4
25,28:4
25,30:1
25,54:7
25,55:2
25,56:2
25,57:2
25,58:8
25,67:8
26,8:2
26,9:2
26,14:2
26,15:2
26,16:4
26,17:2
26,21:3
26,27:3
26,28:3
26,33:4
26,34:4
26,54:6
26,55:1
26,56:1
26,57:1
26,58:7
26,67:7
27,16:1
27,54:3
27,58:4
27,67:4
28,16:1
28,54:3
28,58:4
28,67:4
29,8:2
29,9:2
29,14:2
29,15:2
29,16:4
29,17:2
29,21:3
29,27:3
29,28:3
29,54:6
29,55:1
29,56:1
29,57:1
29,58:7
29,67:7
30,8:2
30,9:2
30,14:2
30,15:2
30,16:4
30,17:2
30,21:3
30,27:3
30,28:3
30,33:4
30,34:4
30,37:2
30,38:2
30,39:2
30,40:1
30,43:6
30,44:1
30,45:6
30,46:6
30,47:1
30,49:1
30,50:1
30,53:7
30,68:7
30,69:6
30,70:6
30,71:7
30,72:6
30,80:6
31,8:2
31,9:2
31,14:2
31,15:2
31,16:4
31,17:2
31,21:3
31,27:3
31,28:3
31,54:6
31,55:1
31,56:1
31,57:1
31,58:7
31,67:7
32,8:2
32,9:2
32,14:2
32,15:2
32,16:4
32,17:2
32,21:3
32,27:3
32,28:3
32,54:6
32,55:1
32,56:1
32,57:1
32,58:7
32,67:7
33,54:2
33,58:3
33,67:3
34,54:2
34,58:3
34,67:3
35,1:3
35,2:3
35,3:3
35,4:3
35,6:3
35,7:3
35,8:5
35,9:5
35,14:5
35,15:5
35,16:7
35,17:5
35,18:1
35,19:1
35,20:1
35,21:6
35,22:1
35,23:2
35,24:2
35,25:2
35,26:3
35,27:6
35,28:6
35,29:3
35,30:3
35,31:3
35,32:3
35,33:7
35,34:7
35,54:9
35,55:4
35,56:4
35,57:4
35,58:10
35,62:1
35,63:1
35,65:1
35,67:10
36,1:3
36,2:3
36,3:3
36,4:3
36,6:3
36,7:3
36,8:5
36,9:5
36,14:5
36,15:5
36,16:7
36,17:5
36,18:1
36,19:1
36,20:1
36,21:6
36,22:1
36,23:2
36,24:2
36,25:2
36,26:3
36,27:6
36,28:6
36,29:3
36,30:3
36,31:3
36,32:3
36,33:7
36,34:7
36,37:5
36,54:9
36,55:4
36,56:4
36,57:4
36,58:10
36,62:1
36,63:1
36,65:1
36,67:10
37,16:2
37,21:1
37,27:1
37,28:1
37,33:2
37,34:2
37,54:4
37,58:5
37,67:5
38,16:2
38,21:1
38,27:1
38,28:1
38,33:2
38,34:2
38,54:4
38,58:5
38,67:5
39,16:2
39,21:1
39,27:1
39,28:1
39,33:2
39,34:2
39,54:4
39,58:5
39,67:5
40,8:1
40,9:1
40,14:1
40,15:1
40,16:3
40,17:1
40,21:2
40,27:2
40,28:2
40,33:3
40,34:3
40,37:1
40,38:1
40,39:1
40,43:5
40,45:5
40,46:5
40,54:5
40,58:6
40,67:6
41,1:2
41,2:2
41,3:2
41,4:2
41,6:2
41,7:2
41,8:4
41,9:4
41,14:4
41,15:4
41,16:6
41,17:4
41,21:5
41,23:1
41,24:1
41,25:1
41,26:2
41,27:5
41,28:5
41,29:2
41,30:2
41,31:2
41,32:2
41,33:6
41,34:6
41,37:4
41,38:4
41,39:4
41,40:3
41,43:8
41,44:3
41,45:8
41,46:8
41,47:3
41,49:3
41,50:3
41,54:8
41,55:3
41,56:3
41,57:3
41,58:9
41,67:9
42,1:4
42,2:4
42,3:4
42,4:4
42,6:4
42,7:4
42,8:6
42,9:6
42,14:6
42,15:6
42,16:8
42,17:6
42,18:2
42,19:2
42,20:2
42,21:7
42,22:2
42,23:3
42,24:3
42,25:3
42,26:4
42,27:7
42,28:7
42,29:4
42,30:4
42,31:4
42,32:4
42,33:8
42,34:8
42,35:1
42,36:1
42,37:6
42,38:6
42,39:6
42,40:5
42,41:2
42,43:10
42,44:5
42,45:10
42,46:10
42,47:5
42,48:2
42,49:5
42,50:5
42,51:2
42,52:2
42,54:10
42,55:5
42,56:5
42,57:5
42,58:11
42,62:2
42,63:2
42,65:2
42,67:11
43,58:1
43,67:1
44,8:1
44,9:1
44,14:1
44,15:1
44,16:3
44,17:1
44,21:2
44,27:2
44,28:2
44,33:3
44,34:3
44,37:1
44,38:1
44,39:1
44,43:5
44,45:5
44,46:5
44,54:5
44,58:6
44,67:6
45,58:1
45,67:1
46,58:1
46,67:1
47,8:1
47,9:1
47,14:1
47,15:1
47,16:3
47,17:1
47,21:2
47,27:2
47,28:2
47,33:3
47,34:3
47,37:1
47,38:1
47,39:1
47,43:5
47,45:5
47,46:5
47,54:5
47,58:6
47,67:6
48,1:2
48,2:2
48,3:2
48,4:2
48,6:2
48,7:2
48,8:4
48,9:4
48,14:4
48,15:4
48,16:6
48,17:4
48,21:5
48,23:1
48,24:1
48,25:1
48,26:2
48,27:5
48,28:5
48,29:2
48,30:2
48,31:2
48,32:2
48,33:6
48,34:6
48,37:4
48,38:4
48,39:4
48,40:3
48,43:8
48,44:3
48,45:8
48,46:8
48,47:3
48,49:3
48,50:3
48,53:9
48,54:8
48,55:3
48,56:3
48,57:3
48,58:9
48,67:9
48,68:9
48,69:8
48,70:8
48,71:9
48,72:8
48,73:8
48,74:8
48,80:8
48,81:3
48,82:3
48,83:3
48,84:3
48,85:3
48,86:1
48,87:1
48,88:1
48,89:1
49,8:1
49,9:1
49,14:1
49,15:1
49,16:3
49,17:1
49,21:2
49,27:2
49,28:2
49,33:3
49,34:3
49,37:1
49,38:1
49,39:1
49,43:5
49,45:5
49,46:5
49,54:5
49,58:6
49,67:6
50,8:1
50,9:1
50,14:1
50,15:1
50,16:3
50,17:1
50,21:2
50,27:2
50,28:2
50,33:3
50,34:3
50,37:1
50,38:1
50,39:1
50,43:5
50,45:5
50,46:5
50,54:5
50,58:6
50,67:6
51,1:2
51,2:2
51,3:2
51,4:2
51,6:2
51,7:2
51,8:4
51,9:4
51,14:4
51,15:4
51,16:6
51,17:4
51,21:5
51,23:1
51,24:1
51,25:1
51,26:2
51,27:5
51,28:5
51,29:2
51,30:2
51,31:2
51,32:2
51,33:6
51,34:6
51,37:4
51,38:4
51,39:4
51,40:3
51,43:8
51,44:3
51,45:8
51,46:8
51,47:3
51,49:3
51,50:3
51,54:8
51,55:3
51,56:3
51,57:3
51,58:9
51,67:9
52,1:2
52,2:2
52,3:2
52,4:2
52,6:2
52,7:2
52,8:4
52,9:4
52,14:4
52,15:4
52,16:6
52,17:4
52,21:5
52,23:1
52,24:1
52,25:1
52,26:2
52,27:5
52,28:5
52,29:2
52,30:2
52,31:2
52,32:2
52,33:6
52,34:6
52,37:4
52,38:4
52,39:4
52,40:3
52,43:8
52,44:3
52,45:8
52,46:8
52,47:3
52,49:3
52,50:3
52,54:8
52,55:3
52,56:3
52,57:3
52,58:9
52,67:9
54,53:1
54,68:1
54,71:1
55,8:1
55,9:1
55,14:1
55,15:1
55,16:3
55,17:1
55,21:2
55,27:2
55,28:2
55,33:3
55,34:3
55,37:1
55,38:1
55,39:1
55,43:5
55,45:5
55,46:5
55,53:6
55,54:5
55,68:6
55,69:5
55,70:5
55,71:6
55,72:5
55,80:5
56,8:1
56,9:1
56,14:1
56,15:1
56,16:3
56,17:1
56,21:2
56,27:2
56,28:2
56,33:3
56,34:3
56,37:1
56,38:1
56,39:1
56,43:5
56,45:5
56,46:5
56,53:6
56,54:5
56,68:6
56,69:5
56,70:5
56,71:6
56,72:5
56,80:5
57,8:1
57,9:1
57,14:1
57,15:1
57,16:3
57,17:1
57,21:2
57,27:2
57,28:2
57,33:3
57,34:3
57,37:1
57,38:1
57,39:1
57,43:5
57,45:5
57,46:5
57,53:6
57,54:5
57,68:6
57,69:5
57,70:5
57,71:6
57,72:5
57,80:5
59,1:4
59,2:4
59,3:4
59,4:4
59,6:4
59,7:4
59,8:6
59,9:6
59,14:6
59,15:6
59,16:8
59,17:6
59,18:2
59,19:2
59,20:2
59,21:7
59,22:2
59,23:3
59,24:3
59,25:3
59,26:4
59,27:7
59,28:7
59,29:4
59,30:4
59,31:4
59,32:4
59,33:8
59,34:8
59,35:1
59,36:1
59,37:6
59,38:6
59,39:6
59,40:5
59,41:2
59,43:10
59,44:5
59,45:10
59,46:10
59,47:5
59,48:2
59,49:5
59,50:5
59,51:2
59,52:2
59,53:11
59,54:10
59,55:5
59,56:5
59,57:5
59,58:11
59,62:2
59,63:2
59,65:2
59,68:11
59,69:10
59,70:10
59,71:11
59,72:10
59,80:10
60,1:4
60,2:4
60,3:4
60,4:4
60,6:4
60,7:4
60,8:6
60,9:6
60,14:6
60,15:6
60,16:8
60,17:6
60,18:2
60,19:2
60,20:2
60,21:7
60,22:2
60,23:3
60,24:3
60,25:3
60,26:4
60,27:7
60,28:7
60,29:4
60,30:4
60,31:4
60,32:4
60,33:8
60,34:8
60,35:1
60,36:1
60,37:6
60,38:6
60,39:6
60,40:5
60,41:2
60,43:10
60,44:5
60,45:10
60,46:10
60,47:5
60,48:2
60,49:5
60,50:5
60,51:2
60,52:2
60,53:11
60,54:10
60,55:5
60,56:5
60,57:5
60,58:11
60,62:2
60,63:2
60,65:2
60,68:11
60,69:10
60,70:10
60,71:11
60,72:10
60,80:10
61,1:4
61,2:4
61,3:4
61,4:4
61,6:4
61,7:4
61,8:6
61,9:6
61,14:6
61,15:6
61,16:8
61,17:6
61,18:2
61,19:2
61,20:2
61,21:7
61,22:2
61,23:3
61,24:3
61,25:3
61,26:4
61,27:7
61,28:7
61,29:4
61,30:4
61,31:4
61,32:4
61,33:8
61,34:8
61,35:1
61,36:1
61,37:6
61,38:6
61,39:6
61,40:5
61,41:2
61,43:10
61,44:5
61,45:10
61,46:10
61,47:5
61,48:2
61,49:5
61,50:5
61,51:2
61,52:2
61,53:11
61,54:10
61,55:5
61,56:5
61,57:5
61,58:11
61,62:2
61,63:2
61,65:2
61,68:11
61,69:10
61,70:10
61,71:11
61,72:10
61,80:10
62,1:2
62,2:2
62,3:2
62,4:2
62,6:2
62,7:2
62,8:4
62,9:4
62,14:4
62,15:4
62,16:6
62,17:4
62,21:5
62,23:1
62,24:1
62,25:1
62,26:2
62,27:5
62,28:5
62,29:2
62,30:2
62,31:2
62,32:2
62,33:6
62,34:6
62,37:4
62,38:4
62,39:4
62,40:3
62,43:8
62,44:3
62,45:8
62,46:8
62,47:3
62,49:3
62,50:3
62,53:9
62,54:8
62,55:3
62,56:3
62,57:3
62,58:9
62,68:9
62,69:8
62,70:8
62,71:9
62,72:8
62,80:8
63,1:2
63,2:2
63,3:2
63,4:2
63,6:2
63,7:2
63,8:4
63,9:4
63,14:4
63,15:4
63,16:6
63,17:4
63,21:5
63,23:1
63,24:1
63,25:1
63,26:2
63,27:5
63,28:5
63,29:2
63,30:2
63,31:2
63,32:2
63,33:6
63,34:6
63,37:4
63,38:4
63,39:4
63,40:3
63,43:8
63,44:3
63,45:8
63,46:8
63,47:3
63,49:3
63,50:3
63,53:9
63,54:8
63,55:3
63,56:3
63,57:3
63,58:9
63,68:9
63,69:8
63,70:8
63,71:9
63,72:8
63,80:8
64,1:4
64,2:4
64,3:4
64,4:4
64,6:4
64,7:4
64,8:6
64,9:6
64,14:6
64,15:6
64,16:8
64,17:6
64,18:2
64,19:2
64,20:2
64,21:7
64,22:2
64,23:3
64,24:3
64,25:3
64,26:4
64,27:7
64,28:7
64,29:4
64,30:4
64,31:4
64,32:4
64,33:8
64,34:8
64,35:1
64,36:1
64,37:6
64,38:6
64,39:6
64,40:5
64,41:2
64,43:10
64,44:5
64,45:10
64,46:10
64,47:5
64,48:2
64,49:5
64,50:5
64,51:2
64,52:2
64,53:11
64,54:10
64,55:5
64,56:5
64,57:5
64,58:11
64,62:2
64,63:2
64,65:2
64,68:11
64,69:10
64,70:10
64,71:11
64,72:10
64,80:10
65,1:2
65,2:2
65,3:2
65,4:2
65,6:2
65,7:2
65,8:4
65,9:4
65,14:4
65,15:4
65,16:6
65,17:4
65,21:5
65,23:1
65,24:1
65,25:1
65,26:2
65,27:5
65,28:5
65,29:2
65,30:2
65,31:2
65,32:2
65,33:6
65,34:6
65,37:4
65,38:4
65,39:4
65,40:3
65,43:8
65,44:3
65,45:8
65,46:8
65,47:3
65,49:3
65,50:3
65,53:9
65,54:8
65,55:3
65,56:3
65,57:3
65,58:9
65,68:9
65,69:8
65,70:8
65,71:9
65,72:8
65,80:8
66,1:4
66,2:4
66,3:4
66,4:4
66,6:4
66,7:4
66,8:6
66,9:6
66,14:6
66,15:6
66,16:8
66,17:6
66,18:2
66,19:2
66,20:2
66,21:7
66,22:2
66,23:3
66,24:3
66,25:3
66,26:4
66,27:7
66,28:7
66,29:4
66,30:4
66,31:4
66,32:4
66,33:8
66,34:8
66,35:1
66,36:1
66,37:6
66,38:6
66,39:6
66,40:5
66,41:2
66,43:10
66,44:5
66,45:10
66,46:10
66,47:5
66,48:2
66,49:5
66,50:5
66,51:2
66,52:2
66,53:11
66,54:10
66,55:5
66,56:5
66,57:5
66,58:11
66,62:2
66,63:2
66,65:2
66,68:11
66,69:10
66,70:10
66,71:11
66,72:10
66,80:10
69,53:1
69,58:1
69,67:1
69,68:1
69,71:1
70,53:1
70,58:1
70,67:1
70,68:1
70,71:1
72,53:1
72,58:1
72,67:1
72,68:1
72,71:1
73,53:1
73,58:1
73,67:1
73,68:1
73,71:1
74,53:1
74,58:1
74,67:1
74,68:1
74,71:1
75,1:5
75,2:5
75,3:5
75,4:5
75,6:5
75,7:5
75,8:7
75,9:7
75,14:7
75,15:7
75,16:9
75,17:7
75,18:3
75,19:3
75,20:3
75,21:8
75,22:3
75,23:4
75,24:4
75,25:4
75,26:5
75,27:8
75,28:8
75,29:5
75,30:5
75,31:5
75,32:5
75,33:9
75,34:9
75,35:2
75,36:2
75,37:7
75,38:7
75,39:7
75,40:6
75,41:3
75,42:1
75,43:11
75,44:6
75,45:11
75,46:11
75,47:6
75,48:3
75,49:6
75,50:6
75,51:3
75,52:3
75,53:12
75,54:11
75,55:6
75,56:6
75,57:6
75,58:12
75,59:1
75,60:1
75,61:1
75,62:3
75,63:3
75,64:1
75,65:3
75,66:1
75,67:12
75,68:12
75,69:11
75,70:11
75,71:12
75,72:11
75,73:11
75,74:11
75,80:11
76,1:5
76,2:5
76,3:5
76,4:5
76,6:5
76,7:5
76,8:7
76,9:7
76,14:7
76,15:7
76,16:9
76,17:7
76,18:3
76,19:3
76,20:3
76,21:8
76,22:3
76,23:4
76,24:4
76,25:4
76,26:5
76,27:8
76,28:8
76,29:5
76,30:5
76,31:5
76,32:5
76,33:9
76,34:9
76,35:2
76,36:2
76,37:7
76,38:7
76,39:7
76,40:6
76,41:3
76,42:1
76,43:11
76,44:6
76,45:11
76,46:11
76,47:6
76,48:3
76,49:6
76,50:6
76,51:3
76,52:3
76,53:12
76,54:11
76,55:6
76,56:6
76,57:6
76,58:12
76,59:1
76,60:1
76,61:1
76,62:3
76,63:3
76,64:1
76,65:3
76,66:1
76,67:12
76,68:12
76,69:11
76,70:11
76,71:12
76,72:11
76,73:11
76,74:11
76,80:11
77,1:5
77,2:5
77,3:5
77,4:5
77,6:5
77,7:5
77,8:7
77,9:7
77,14:7
77,15:7
77,16:9
77,17:7
77,18:3
77,19:3
77,20:3
77,21:8
77,22:3
77,23:4
77,24:4
77,25:4
77,26:5
77,27:8
77,28:8
77,29:5
77,30:5
77,31:5
77,32:5
77,33:9
77,34:9
77,35:2
77,36:2
77,37:7
77,38:7
77,39:7
77,40:6
77,41:3
77,42:1
77,43:11
77,44:6
77,45:11
77,46:11
77,47:6
77,48:3
77,49:6
77,50:6
77,51:3
77,52:3
77,53:12
77,54:11
77,55:6
77,56:6
77,57:6
77,58:12
77,59:1
77,60:1
77,61:1
77,62:3
77,63:3
77,64:1
77,65:3
77,66:1
77,67:12
77,68:12
77,69:11
77,70:11
77,71:12
77,72:11
77,73:11
77,74:11
77,80:11
78,1:5
78,2:5
78,3:5
78,4:5
78,6:5
78,7:5
78,8:7
78,9:7
78,14:7
78,15:7
78,16:9
78,17:7
78,18:3
78,19:3
78,20:3
78,21:8
78,22:3
78,23:4
78,24:4
78,25:4
78,26:5
78,27:8
78,28:8
78,29:5
78,30:5
78,31:5
78,32:5
78,33:9
78,34:9
78,35:2
78,36:2
78,37:7
78,38:7
78,39:7
78,40:6
78,41:3
78,42:1
78,43:11
78,44:6
78,45:11
78,46:11
78,47:6
78,48:3
78,49:6
78,50:6
78,51:3
78,52:3
78,53:12
78,54:11
78,55:6
78,56:6
78,57:6
78,58:12
78,59:1
78,60:1
78,61:1
78,62:3
78,63:3
78,64:1
78,65:3
78,66:1
78,67:12
78,68:12
78,69:11
78,70:11
78,71:12
78,72:11
78,73:11
78,74:11
78,80:11
79,1:5
79,2:5
79,3:5
79,4:5
79,6:5
79,7:5
79,8:7
79,9:7
79,14:7
79,15:7
79,16:9
79,17:7
79,18:3
79,19:3
79,20:3
79,21:8
79,22:3
79,23:4
79,24:4
79,25:4
79,26:5
79,27:8
79,28:8
79,29:5
79,30:5
79,31:5
79,32:5
79,33:9
79,34:9
79,35:2
79,36:2
79,37:7
79,38:7
79,39:7
79,40:6
79,41:3
79,42:1
79,43:11
79,44:6
79,45:11
79,46:11
79,47:6
79,48:3
79,49:6
79,50:6
79,51:3
79,52:3
79,53:12
79,54:11
79,55:6
79,56:6
79,57:6
79,58:12
79,59:1
79,60:1
79,61:1
79,62:3
79,63:3
79,64:1
79,65:3
79,66:1
79,67:12
79,68:12
79,69:11
79,70:11
79,71:12
79,72:11
79,73:11
79,74:11
79,80:11
80,53:1
80,58:1
80,67:1
80,68:1
80,71:1
81,8:1
81,9:1
81,14:1
81,15:1
81,16:3
81,17:1
81,21:2
81,27:2
81,28:2
81,33:3
81,34:3
81,37:1
81,38:1
81,39:1
81,43:5
81,45:5
81,46:5
81,53:6
81,54:5
81,58:6
81,67:6
81,68:6
81,69:5
81,70:5
81,71:6
81,72:5
81,73:5
81,74:5
81,80:5
82,8:1
82,9:1
82,14:1
82,15:1
82,16:3
82,17:1
82,21:2
82,27:2
82,28:2
82,33:3
82,34:3
82,37:1
82,38:1
82,39:1
82,43:5
82,45:5
82,46:5
82,53:6
82,54:5
82,58:6
82,67:6
82,68:6
82,69:5
82,70:5
82,71:6
82,72:5
82,73:5
82,74:5
82,80:5
83,8:1
83,9:1
83,14:1
83,15:1
83,16:3
83,17:1
83,21:2
83,27:2
83,28:2
83,33:3
83,34:3
83,37:1
83,38:1
83,39:1
83,43:5
83,45:5
83,46:5
83,53:6
83,54:5
83,58:6
83,67:6
83,68:6
83,69:5
83,70:5
83,71:6
83,72:5
83,73:5
83,74:5
83,80:5
84,8:1
84,9:1
84,14:1
84,15:1
84,16:3
84,17:1
84,21:2
84,27:2
84,28:2
84,33:3
84,34:3
84,37:1
84,38:1
84,39:1
84,43:5
84,45:5
84,46:5
84,53:6
84,54:5
84,58:6
84,67:6
84,68:6
84,69:5
84,70:5
84,71:6
84,72:5
84,73:5
84,74:5
84,80:5
85,8:1
85,9:1
85,14:1
85,15:1
85,16:3
85,17:1
85,21:2
85,27:2
85,28:2
85,33:3
85,34:3
85,37:1
85,38:1
85,39:1
85,43:5
85,45:5
85,46:5
85,53:6
85,54:5
85,58:6
85,67:6
85,68:6
85,69:5
85,70:5
85,71:6
85,72:5
85,73:5
85,74:5
85,80:5
86,1:1
86,2:1
86,3:1
86,4:1
86,6:1
86,7:1
86,8:3
86,9:3
86,14:3
86,15:3
86,16:5
86,17:3
86,21:4
86,26:1
86,27:4
86,28:4
86,29:1
86,30:1
86,31:1
86,32:1
86,33:5
86,34:5
86,37:3
86,38:3
86,39:3
86,40:2
86,43:7
86,44:2
86,45:7
86,46:7
86,47:2
86,49:2
86,50:2
86,53:8
86,54:7
86,55:2
86,56:2
86,57:2
86,58:8
86,67:8
86,68:8
86,69:7
86,70:7
86,71:8
86,72:7
86,73:7
86,74:7
86,80:7
86,81:2
86,82:2
86,83:2
86,84:2
86,85:2
87,1:1
87,2:1
87,3:1
87,4:1
87,6:1
87,7:1
87,8:3
87,9:3
87,14:3
87,15:3
87,16:5
87,17:3
87,21:4
87,26:1
87,27:4
87,28:4
87,29:1
87,30:1
87,31:1
87,32:1
87,33:5
87,34:5
87,37:3
87,38:3
87,39:3
87,40:2
87,43:7
87,44:2
87,45:7
87,46:7
87,47:2
87,49:2
87,50:2
87,53:8
87,54:7
87,55:2
87,56:2
87,57:2
87,58:8
87,67:8
87,68:8
87,69:7
87,70:7
87,71:8
87,72:7
87,73:7
87,74:7
87,80:7
87,81:2
87,82:2
87,83:2
87,84:2
87,85:2
88,1:1
88,2:1
88,3:1
88,4:1
88,6:1
88,7:1
88,8:3
88,9:3
88,14:3
88,15:3
88,16:5
88,17:3
88,21:4
88,26:1
88,27:4
88,28:4
88,29:1
88,30:1
88,31:1
88,32:1
88,33:5
88,34:5
88,37:3
88,38:3
88,39:3
88,40:2
88,43:7
88,44:2
88,45:7
88,46:7
88,47:2
88,49:2
88,50:2
88,53:8
88,54:7
88,55:2
88,56:2
88,57:2
88,58:8
88,67:8
88,68:8
88,69:7
88,70:7
88,71:8
88,72:7
88,73:7
88,74:7
88,80:7
88,81:2
88,82:2
88,83:2
88,84:2
88,85:2
89,1:1
89,2:1
89,3:1
89,4:1
89,6:1
89,7:1
89,8:3
89,9:3
89,14:3
89,15:3
89,16:5
89,17:3
89,21:4
89,26:1
89,27:4
89,28:4
89,29:1
89,30:1
89,31:1
89,32:1
89,33:5
89,34:5
89,37:3
89,38:3
89,39:3
89,40:2
89,43:7
89,44:2
89,45:7
89,46:7
89,47:2
89,49:2
89,50:2
89,53:8
89,54:7
89,55:2
89,56:2
89,57:2
89,58:8
89,67:8
89,68:8
89,69:7
89,70:7
89,71:8
89,72:7
89,73:7
89,74:7
89,80:7
89,81:2
89,82:2
89,83:2
89,84:2
89,85:2

<end>

<optimal SALBP-1 value>
19


<rand seed>
467321153

<Lower Bounds>
Lm1=18
Lms1=18
Lm2=4
Lm3=8
Lm4=18
Best=18

<Optimal Stations (Iterations: 10)>
21
